
Gurobi 11.0.2 (win64) logging started Mon Aug 19 16:39:35 2024

Set parameter LogFile to value "D:\Documenti\Scuola\Laurea magistrale unibs\laurea-unibs-mkfsp\output\2024-08-19T13_57_45.433552\logs\instance05_bucket1.log"
Set parameter TimeLimit to value 400
Set parameter MIPGap to value 0
Gurobi Optimizer version 11.0.2 build v11.0.2rc0 (win64 - Windows 10.0 (19045.2))

CPU model: Intel(R) Core(TM) i5-4670 CPU @ 3.40GHz, instruction set [SSE2|AVX|AVX2]
Thread count: 4 physical cores, 4 logical processors, using up to 4 threads

Optimize a model with 945 rows, 3010 columns and 83944 nonzeros
Model fingerprint: 0x01382d87
Variable types: 0 continuous, 3010 integer (2975 binary)
Coefficient statistics:
  Matrix range     [1e+00, 9e+03]
  Objective range  [6e+02, 9e+03]
  Bounds range     [1e+00, 1e+00]
  RHS range        [1e+00, 2e+05]
Found heuristic solution: objective 199867.00000
Presolve removed 0 rows and 13 columns
Presolve time: 0.20s
Presolved: 945 rows, 2997 columns, 83814 nonzeros
Variable types: 0 continuous, 2997 integer (2962 binary)
Found heuristic solution: objective 204769.00000

Root relaxation: objective 2.061760e+05, 511 iterations, 0.01 seconds (0.01 work units)

    Nodes    |    Current Node    |     Objective Bounds      |     Work
 Expl Unexpl |  Obj  Depth IntInf | Incumbent    BestBd   Gap | It/Node Time

     0     0 206176.000    0    4 204769.000 206176.000  0.69%     -    0s
H    0     0                    206176.00000 206176.000  0.00%     -    0s
     0     0 206176.000    0    4 206176.000 206176.000  0.00%     -    0s

Explored 1 nodes (1308 simplex iterations) in 0.31 seconds (0.27 work units)
Thread count was 4 (of 4 available processors)

Solution count 3: 206176 204769 199867 

Optimal solution found (tolerance 0.00e+00)
Best objective 2.061760000000e+05, best bound 2.061760000000e+05, gap 0.0000%
